1140612
33,57,47,95,29,51,12,40,25,78,79,17,26,94,19,59,43,24,65,22,73,14,45,4,81,66,7,39,84,92,52,54,98,11,23,28,46,34,71,90,86,87,76,36,55,91,44,72,99,38,88,50,97,42,35,15,83,82,58,16,61,67,27,2,64,3,5,85,89,8,53,41,6,69,77,20,21,75,49,62,31,60,96,30,18,56,10,93,63,80,68,13,37,48,1,32,74,70,9